(set-logic ALL)
(set-option :produce-models true)
(declare-sort BoundSet 0)
(declare-sort UnboundSet 0)
(set-option :finite-model-find true)
(declare-fun IsFishingInRiver (BoundSet BoundSet) Bool)
(declare-fun IsShoppingAtMall (BoundSet BoundSet) Bool)
(assert (not (=> (exists ((a BoundSet)) (exists ((b BoundSet)) (IsFishingInRiver a b))) (exists ((c BoundSet)) (exists ((d BoundSet)) (IsShoppingAtMall c d))))))
(check-sat)
(get-model)